p cnf 45 47
-22 -14 -4 0
-16 -14 -10 0
-14 -1 -25 0
-8 -5 -2 0
-23 -20 -26 0
-8 -26 -17 0
-20 -11 -2 0
29 -26 -2 0
-24 -4 30 0
-6 -22 31 0
-8 -14 -20 0
34 -11 -17 0
-23 -5 35 0
-7 -14 36 0
-19 -36 28 0
-14 -37 -19 -9 0
-16 -11 38 0
-23 -4 39 0
40 -22 -5 0
41 -10 -17 0
42 -2 -25 0
43 -1 -26 0
-40 -38 -28 -43 0
-13 -20 44 0
-8 -13 45 0
-46 -21 -36 0
-29 -28 0
-27 -1 47 0
48 -3 -25 0
-28 -34 0
-28 -35 0
-40 49 -44 -7 0
-41 -43 -49 0
-38 -43 -49 0
-38 50 -45 -19 0
-39 -42 -50 0
-40 -43 -50 0
-39 -43 -50 0
-30 37 0
-29 46 0
-31 -29 37 0
-48 -46 37 0
-35 46 0
-47 -46 37 0
46 -34 0
-39 -42 -41 0
39 -49 0
